p cnf 259 579
-1 15 0 
1 213 0 
-84 -85 0 
-84 85 86 0 
-85 10 0 
-86 -87 89 0 
-86 87 151 0 
-87 88 0 
-87 79 0 
-88 14 0 
-89 -90 0 
-89 90 113 0 
-90 91 0 
-90 111 0 
-91 92 0 
-91 109 0 
-92 93 0 
-92 107 0 
-93 94 0 
-93 105 0 
-94 95 0 
-94 103 0 
-95 96 0 
-95 101 0 
-96 97 0 
-96 99 0 
-97 -98 0 
-99 -100 0 
-11 -12 0 
-101 -102 0 
-103 -104 0 
-105 -106 0 
-107 -108 0 
-109 -110 0 
-12 -13 14 0 
-12 -14 13 0 
-111 112 0 
-113 114 0 
-113 147 0 
-114 115 0 
-114 143 0 
-115 116 0 
-115 139 0 
-116 117 0 
-116 135 0 
-117 118 0 
-117 131 0 
-118 119 0 
-118 127 0 
-119 120 0 
-119 123 0 
-120 -121 0 
-121 122 0 
-122 -98 0 
-123 -124 0 
-124 -125 -126 0 
-124 125 126 0 
-125 100 0 
-126 98 0 
-127 -128 0 
-128 -129 -130 0 
-128 129 130 0 
-129 102 0 
-130 100 0 
-130 126 0 
-131 -132 0 
-132 -133 -134 0 
-132 133 134 0 
-133 104 0 
-134 102 0 
-134 130 0 
-135 -136 0 
-136 -137 -138 0 
-136 137 138 0 
-137 106 0 
-138 104 0 
-138 134 0 
-139 -140 0 
-15 -16 17 0 
-15 16 64 0 
-140 -141 -142 0 
-140 141 142 0 
-141 108 0 
-142 106 0 
-142 138 0 
-143 -144 0 
-144 -145 -146 0 
-144 145 146 0 
-145 110 0 
-146 108 0 
-146 142 0 
-147 148 0 
-148 -149 -150 0 
-148 149 150 0 
-149 112 0 
-16 5 0 
-150 110 0 
-150 146 0 
-151 152 0 
-151 165 0 
-152 153 0 
-152 164 0 
-153 154 0 
-153 163 0 
-154 155 0 
-154 162 0 
-155 156 0 
-155 161 0 
-156 157 0 
-156 160 0 
-157 158 0 
-157 159 0 
-158 -98 0 
-159 -100 0 
-160 -102 0 
-161 -104 0 
-162 -106 0 
-163 -108 0 
-164 -110 0 
-165 112 0 
-166 167 0 
-166 211 0 
-167 168 0 
-167 209 0 
-168 169 0 
-168 207 0 
-169 170 0 
-169 205 0 
-17 18 0 
-17 62 0 
-170 171 0 
-170 203 0 
-171 172 0 
-171 201 0 
-172 173 0 
-172 199 0 
-173 174 0 
-173 197 0 
-174 175 0 
-174 195 0 
-175 176 0 
-175 193 0 
-176 177 0 
-176 191 0 
-177 178 0 
-177 189 0 
-178 179 0 
-178 187 0 
-179 180 0 
-179 185 0 
-1 2 11 0 
-18 19 0 
-18 60 0 
-180 181 0 
-180 183 0 
-181 -182 33 0 
-181 -33 182 0 
-183 -184 35 0 
-183 -35 184 0 
-185 -186 37 0 
-185 -37 186 0 
-187 -188 39 0 
-187 -39 188 0 
-189 -190 41 0 
-189 -41 190 0 
-19 20 0 
-19 58 0 
-191 -192 43 0 
-191 -43 192 0 
-193 -194 45 0 
-193 -45 194 0 
-195 -196 47 0 
-195 -47 196 0 
-197 -198 49 0 
-197 -49 198 0 
-199 -200 51 0 
-199 -51 200 0 
-20 21 0 
-20 56 0 
-201 -202 53 0 
-201 -53 202 0 
-203 -204 55 0 
-203 -55 204 0 
-205 -206 57 0 
-205 -57 206 0 
-207 -208 59 0 
-207 -59 208 0 
-209 -210 61 0 
-209 -61 210 0 
-21 22 0 
-21 54 0 
-211 -212 63 0 
-211 -63 212 0 
-213 214 0 
-213 258 0 
-214 215 0 
-214 256 0 
-215 216 0 
-215 254 0 
-216 217 0 
-216 252 0 
-217 218 0 
-217 250 0 
-218 219 0 
-218 248 0 
-219 220 0 
-219 246 0 
-22 23 0 
-22 52 0 
-220 221 0 
-220 244 0 
-221 222 0 
-221 242 0 
-222 223 0 
-222 240 0 
-223 224 0 
-223 238 0 
-224 225 0 
-224 236 0 
-225 226 0 
-225 234 0 
-226 227 0 
-226 232 0 
-227 228 0 
-227 230 0 
-228 -229 33 0 
-228 -33 229 0 
-23 24 0 
-23 50 0 
-230 -231 35 0 
-230 -35 231 0 
-232 -233 37 0 
-232 -37 233 0 
-234 -235 39 0 
-234 -39 235 0 
-236 -237 41 0 
-236 -41 237 0 
-238 -239 43 0 
-238 -43 239 0 
-24 25 0 
-24 48 0 
-240 -241 45 0 
-240 -45 241 0 
-242 -243 47 0 
-242 -47 243 0 
-244 -245 49 0 
-244 -49 245 0 
-246 -247 51 0 
-246 -51 247 0 
-248 -249 53 0 
-248 -53 249 0 
-25 26 0 
-25 46 0 
-250 -251 55 0 
-250 -55 251 0 
-252 -253 57 0 
-252 -57 253 0 
-254 -255 59 0 
-254 -59 255 0 
-256 -257 61 0 
-256 -61 257 0 
-258 -259 63 0 
-258 -63 259 0 
-26 27 0 
-26 44 0 
-27 28 0 
-27 42 0 
-2 3 7 0 
-28 29 0 
-28 40 0 
-29 30 0 
-29 38 0 
-30 31 0 
-30 36 0 
-31 32 0 
-31 34 0 
-32 -33 0 
-34 -35 0 
-36 -37 0 
-3 -4 0 
-38 -39 0 
-40 -41 0 
-42 -43 0 
-44 -45 0 
-46 -47 0 
-4 -5 6 0 
-4 -6 5 0 
-48 -49 0 
-50 -51 0 
-52 -53 0 
-54 -55 0 
-56 -57 0 
-58 -59 0 
-60 -61 0 
-62 -63 0 
-64 -65 17 0 
-64 65 66 0 
-65 9 0 
-66 -67 69 0 
-66 67 213 0 
-67 11 0 
-67 68 0 
-68 13 0 
-69 -70 17 0 
-69 70 166 0 
-70 -71 82 0 
-70 71 151 0 
-71 72 79 0 
-72 73 76 0 
-73 -74 0 
-74 -6 75 0 
-74 -75 6 0 
-76 -77 0 
-7 -8 0 
-77 -10 78 0 
-77 -78 10 0 
-79 -80 0 
-80 -14 81 0 
-80 -81 14 0 
-82 -83 0 
-82 83 84 0 
-83 6 0 
-8 -9 10 0 
-8 -10 9 0 
84 85 -86 0 
85 -10 0 
86 -87 -89 0 
86 -89 -151 0 
86 87 -151 0 
87 -79 -88 0 
88 -14 0 
89 90 -113 0 
90 -91 -111 0 
91 -92 -109 0 
92 -93 -107 0 
93 -94 -105 0 
94 -95 -103 0 
95 -96 -101 0 
96 -97 -99 0 
97 98 0 
99 100 0 
11 12 0 
101 102 0 
103 104 0 
105 106 0 
107 108 0 
109 110 0 
12 -13 -14 0 
12 13 14 0 
111 -112 0 
113 -114 -147 0 
114 -115 -143 0 
115 -116 -139 0 
116 -117 -135 0 
117 -118 -131 0 
118 -119 -127 0 
119 -120 -123 0 
120 121 0 
121 -122 0 
122 98 0 
123 124 0 
124 -125 126 0 
124 -126 125 0 
125 -100 0 
126 -98 0 
127 128 0 
128 -129 130 0 
128 -130 129 0 
129 -102 0 
130 -100 -126 0 
131 132 0 
132 -133 134 0 
132 -134 133 0 
133 -104 0 
134 -102 -130 0 
135 136 0 
136 -137 138 0 
136 -138 137 0 
137 -106 0 
138 -104 -134 0 
139 140 0 
15 -16 -17 0 
15 -17 -64 0 
15 16 -64 0 
140 -141 142 0 
140 -142 141 0 
141 -108 0 
142 -106 -138 0 
143 144 0 
144 -145 146 0 
144 -146 145 0 
145 -110 0 
146 -108 -142 0 
147 -148 0 
148 -149 150 0 
148 -150 149 0 
149 -112 0 
16 -5 0 
150 -110 -146 0 
151 -152 -165 0 
152 -153 -164 0 
153 -154 -163 0 
154 -155 -162 0 
155 -156 -161 0 
156 -157 -160 0 
157 -158 -159 0 
158 98 0 
159 100 0 
160 102 0 
161 104 0 
162 106 0 
163 108 0 
164 110 0 
165 -112 0 
166 -167 -211 0 
167 -168 -209 0 
168 -169 -207 0 
169 -170 -205 0 
17 -18 -62 0 
170 -171 -203 0 
171 -172 -201 0 
172 -173 -199 0 
173 -174 -197 0 
174 -175 -195 0 
175 -176 -193 0 
176 -177 -191 0 
177 -178 -189 0 
178 -179 -187 0 
179 -180 -185 0 
1 -11 0 
1 -2 0 
18 -19 -60 0 
180 -181 -183 0 
181 -33 -182 0 
181 33 182 0 
183 -35 -184 0 
183 35 184 0 
185 -37 -186 0 
185 37 186 0 
187 -39 -188 0 
187 39 188 0 
189 -41 -190 0 
189 41 190 0 
19 -20 -58 0 
191 -43 -192 0 
191 43 192 0 
193 -45 -194 0 
193 45 194 0 
195 -47 -196 0 
195 47 196 0 
197 -49 -198 0 
197 49 198 0 
199 -51 -200 0 
199 51 200 0 
20 -21 -56 0 
201 -53 -202 0 
201 53 202 0 
203 -55 -204 0 
203 55 204 0 
205 -57 -206 0 
205 57 206 0 
207 -59 -208 0 
207 59 208 0 
209 -61 -210 0 
209 61 210 0 
21 -22 -54 0 
211 -63 -212 0 
211 63 212 0 
213 -214 -258 0 
214 -215 -256 0 
215 -216 -254 0 
216 -217 -252 0 
217 -218 -250 0 
218 -219 -248 0 
219 -220 -246 0 
22 -23 -52 0 
220 -221 -244 0 
221 -222 -242 0 
222 -223 -240 0 
223 -224 -238 0 
224 -225 -236 0 
225 -226 -234 0 
226 -227 -232 0 
227 -228 -230 0 
228 -33 -229 0 
228 33 229 0 
23 -24 -50 0 
230 -35 -231 0 
230 35 231 0 
232 -37 -233 0 
232 37 233 0 
234 -39 -235 0 
234 39 235 0 
236 -41 -237 0 
236 41 237 0 
238 -43 -239 0 
238 43 239 0 
24 -25 -48 0 
240 -45 -241 0 
240 45 241 0 
242 -47 -243 0 
242 47 243 0 
244 -49 -245 0 
244 49 245 0 
246 -51 -247 0 
246 51 247 0 
248 -53 -249 0 
248 53 249 0 
25 -26 -46 0 
250 -55 -251 0 
250 55 251 0 
252 -57 -253 0 
252 57 253 0 
254 -59 -255 0 
254 59 255 0 
256 -61 -257 0 
256 61 257 0 
258 -63 -259 0 
258 63 259 0 
26 -27 -44 0 
27 -28 -42 0 
2 -3 0 
2 -7 0 
28 -29 -40 0 
29 -30 -38 0 
30 -31 -36 0 
31 -32 -34 0 
32 33 0 
34 35 0 
36 37 0 
3 4 0 
38 39 0 
40 41 0 
42 43 0 
44 45 0 
46 47 0 
4 -5 -6 0 
4 5 6 0 
48 49 0 
50 51 0 
52 53 0 
54 55 0 
56 57 0 
58 59 0 
60 61 0 
62 63 0 
64 -17 -66 0 
64 -65 -17 0 
64 65 -66 0 
65 -9 0 
66 -67 -69 0 
66 -69 -213 0 
66 67 -213 0 
67 -11 -68 0 
68 -13 0 
69 -17 -166 0 
69 -70 -17 0 
69 70 -166 0 
70 -71 -82 0 
70 -82 -151 0 
70 71 -151 0 
71 -72 0 
71 -79 0 
72 -73 0 
72 -76 0 
73 74 0 
74 -6 -75 0 
74 6 75 0 
76 77 0 
7 8 0 
77 -10 -78 0 
77 10 78 0 
79 80 0 
80 -14 -81 0 
80 14 81 0 
82 83 -84 0 
83 -6 0 
8 -9 -10 0 
8 9 10 0 
